set N := AA AB AC AD AE AF AG AH AI AJ AK AL AM AN AO AP AQ AR AS AT;

set T := AA AB AC AD AE AF AG AH AI AJ;

table	K={K}	u(K)	o(K)	o_(K):
	K	u	o	o_	:=
	1	44.02	AK	AL
	2	21.46	AM	AN
	3	21.30	AO	AP
	4	48.68	AQ	AR
	5	40.00	AS	AT
;

param c default 0 :=
AA	AB	1	113.75
AA	AB	2	111.61
AA	AB	3	123.82
AA	AB	4	102.39
AA	AB	5	123.13
AA	AC	1	215.40
AA	AC	2	211.35
AA	AC	3	234.48
AA	AC	4	193.90
AA	AC	5	233.17
AA	AD	1	181.70
AA	AD	2	178.28
AA	AD	3	197.79
AA	AD	4	163.56
AA	AD	5	196.68
AA	AE	1	796.22
AA	AE	2	781.25
AA	AE	3	866.75
AA	AE	4	716.73
AA	AE	5	861.88
AA	AF	1	220.52
AA	AF	2	216.37
AA	AF	3	240.05
AA	AF	4	198.51
AA	AF	5	238.71
AA	AG	1	211.22
AA	AG	2	207.25
AA	AG	3	229.93
AA	AG	4	190.13
AA	AG	5	228.64
AA	AH	1	84.49
AA	AH	2	82.90
AA	AH	3	91.97
AA	AH	4	76.05
AA	AH	5	91.46
AA	AI	1	147.85
AA	AI	2	145.07
AA	AI	3	160.95
AA	AI	4	133.09
AA	AI	5	160.05
AA	AJ	1	882.08
AA	AJ	2	865.50
AA	AJ	3	960.22
AA	AJ	4	794.03
AA	AJ	5	954.83
AA	AK	1	213.99
AA	AK	2	209.97
AA	AK	3	232.95
AA	AK	4	192.63
AA	AK	5	231.64
AA	AL	1	562.24
AA	AL	2	551.68
AA	AL	3	612.05
AA	AL	4	506.12
AA	AL	5	608.61
AA	AM	1	652.32
AA	AM	2	640.06
AA	AM	3	710.11
AA	AM	4	587.21
AA	AM	5	706.12
AA	AN	1	228.81
AA	AN	2	224.51
AA	AN	3	249.08
AA	AN	4	205.97
AA	AN	5	247.68
AA	AO	1	795.75
AA	AO	2	780.79
AA	AO	3	866.24
AA	AO	4	716.32
AA	AO	5	861.38
AA	AP	1	779.71
AA	AP	2	765.05
AA	AP	3	848.78
AA	AP	4	701.88
AA	AP	5	844.02
AA	AQ	1	433.16
AA	AQ	2	425.02
AA	AQ	3	471.53
AA	AQ	4	389.92
AA	AQ	5	468.89
AA	AR	1	259.54
AA	AR	2	254.66
AA	AR	3	282.53
AA	AR	4	233.63
AA	AR	5	280.95
AA	AS	1	294.59
AA	AS	2	289.05
AA	AS	3	320.68
AA	AS	4	265.18
AA	AS	5	318.88
AA	AT	1	422.88
AA	AT	2	414.94
AA	AT	3	460.35
AA	AT	4	380.67
AA	AT	5	457.76
AB	AA	1	113.75
AB	AA	2	111.61
AB	AA	3	123.82
AB	AA	4	102.39
AB	AA	5	123.13
AB	AC	1	105.61
AB	AC	2	103.62
AB	AC	3	114.97
AB	AC	4	95.07
AB	AC	5	114.32
AB	AD	1	105.61
AB	AD	2	103.62
AB	AD	3	114.97
AB	AD	4	95.07
AB	AD	5	114.32
AB	AE	1	882.08
AB	AE	2	865.50
AB	AE	3	960.22
AB	AE	4	794.03
AB	AE	5	954.83
AB	AF	1	149.35
AB	AF	2	146.55
AB	AF	3	162.59
AB	AF	4	134.45
AB	AF	5	161.67
AB	AG	1	113.75
AB	AG	2	111.61
AB	AG	3	123.82
AB	AG	4	102.39
AB	AG	5	123.13
AB	AH	1	113.75
AB	AH	2	111.61
AB	AH	3	123.82
AB	AH	4	102.39
AB	AH	5	123.13
AB	AI	1	149.35
AB	AI	2	146.55
AB	AI	3	162.59
AB	AI	4	134.45
AB	AI	5	161.67
AB	AJ	1	973.67
AB	AJ	2	955.37
AB	AJ	3	1059.93
AB	AJ	4	876.48
AB	AJ	5	1053.98
AB	AK	1	110.51
AB	AK	2	108.43
AB	AK	3	120.30
AB	AK	4	99.48
AB	AK	5	119.62
AB	AL	1	639.30
AB	AL	2	627.28
AB	AL	3	695.93
AB	AL	4	575.48
AB	AL	5	692.02
AB	AM	1	740.98
AB	AM	2	727.05
AB	AM	3	806.62
AB	AM	4	667.01
AB	AM	5	802.09
AB	AN	1	254.58
AB	AN	2	249.80
AB	AN	3	277.14
AB	AN	4	229.17
AB	AN	5	275.58
AB	AO	1	901.61
AB	AO	2	884.66
AB	AO	3	981.48
AB	AO	4	811.61
AB	AO	5	975.97
AB	AP	1	880.83
AB	AP	2	864.27
AB	AP	3	958.86
AB	AP	4	792.90
AB	AP	5	953.47
AB	AQ	1	506.59
AB	AQ	2	497.06
AB	AQ	3	551.46
AB	AQ	4	456.02
AB	AQ	5	548.36
AB	AR	1	372.35
AB	AR	2	365.35
AB	AR	3	405.33
AB	AR	4	335.18
AB	AR	5	403.05
AB	AS	1	230.93
AB	AS	2	226.59
AB	AS	3	251.38
AB	AS	4	207.88
AB	AS	5	249.97
AB	AT	1	532.04
AB	AT	2	522.04
AB	AT	3	579.17
AB	AT	4	478.93
AB	AT	5	575.92
AC	AA	1	215.40
AC	AA	2	211.35
AC	AA	3	234.48
AC	AA	4	193.90
AC	AA	5	233.17
AC	AB	1	105.61
AC	AB	2	103.62
AC	AB	3	114.97
AC	AB	4	95.07
AC	AB	5	114.32
AC	AD	1	149.35
AC	AD	2	146.55
AC	AD	3	162.59
AC	AD	4	134.45
AC	AD	5	161.67
AC	AE	1	983.70
AC	AE	2	965.21
AC	AE	3	1070.84
AC	AE	4	885.51
AC	AE	5	1064.83
AC	AF	1	105.61
AC	AF	2	103.62
AC	AF	3	114.97
AC	AF	4	95.07
AC	AF	5	114.32
AC	AG	1	42.24
AC	AG	2	41.45
AC	AG	3	45.99
AC	AG	4	38.03
AC	AG	5	45.73
AC	AH	1	215.40
AC	AH	2	211.35
AC	AH	3	234.48
AC	AH	4	193.90
AC	AH	5	233.17
AC	AI	1	236.15
AC	AI	2	231.71
AC	AI	3	257.07
AC	AI	4	212.58
AC	AI	5	255.63
AC	AJ	1	1077.01
AC	AJ	2	1056.77
AC	AJ	3	1172.42
AC	AJ	4	969.50
AC	AJ	5	1165.84
AC	AK	1	102.57
AC	AK	2	100.64
AC	AK	3	111.66
AC	AK	4	92.33
AC	AK	5	111.03
AC	AL	1	738.47
AC	AL	2	724.59
AC	AL	3	803.89
AC	AL	4	664.75
AC	AL	5	799.37
AC	AM	1	843.78
AC	AM	2	827.92
AC	AM	3	918.53
AC	AM	4	759.55
AC	AM	5	913.37
AC	AN	1	340.31
AC	AN	2	333.91
AC	AN	3	370.45
AC	AN	4	306.34
AC	AN	5	368.37
AC	AO	1	1007.18
AC	AO	2	988.25
AC	AO	3	1096.40
AC	AO	4	906.64
AC	AO	5	1090.24
AC	AP	1	986.24
AC	AP	2	967.70
AC	AP	3	1073.61
AC	AP	4	887.79
AC	AP	5	1067.58
AC	AQ	1	605.28
AC	AQ	2	593.90
AC	AQ	3	658.90
AC	AQ	4	544.86
AC	AQ	5	655.20
AC	AR	1	474.89
AC	AR	2	465.97
AC	AR	3	516.96
AC	AR	4	427.49
AC	AR	5	514.06
AC	AS	1	251.94
AC	AS	2	247.20
AC	AS	3	274.25
AC	AS	4	226.79
AC	AS	5	272.71
AC	AT	1	636.94
AC	AT	2	624.96
AC	AT	3	693.36
AC	AT	4	573.35
AC	AT	5	689.47
AD	AA	1	181.70
AD	AA	2	178.28
AD	AA	3	197.79
AD	AA	4	163.56
AD	AA	5	196.68
AD	AB	1	105.61
AD	AB	2	103.62
AD	AB	3	114.97
AD	AB	4	95.07
AD	AB	5	114.32
AD	AC	1	149.35
AD	AC	2	146.55
AD	AC	3	162.59
AD	AC	4	134.45
AD	AC	5	161.67
AD	AE	1	857.72
AD	AE	2	841.59
AD	AE	3	933.70
AD	AE	4	772.10
AD	AE	5	928.46
AD	AF	1	236.15
AD	AF	2	231.71
AD	AF	3	257.07
AD	AF	4	212.58
AD	AF	5	255.63
AD	AG	1	181.70
AD	AG	2	178.28
AD	AG	3	197.79
AD	AG	4	163.56
AD	AG	5	196.68
AD	AH	1	123.16
AD	AH	2	120.85
AD	AH	3	134.07
AD	AH	4	110.87
AD	AH	5	133.32
AD	AI	1	105.61
AD	AI	2	103.62
AD	AI	3	114.97
AD	AI	4	95.07
AD	AI	5	114.32
AD	AJ	1	956.34
AD	AJ	2	938.36
AD	AJ	3	1041.05
AD	AJ	4	860.87
AD	AJ	5	1035.21
AD	AK	1	62.26
AD	AK	2	61.09
AD	AK	3	67.78
AD	AK	4	56.04
AD	AK	5	67.39
AD	AL	1	608.25
AD	AL	2	596.82
AD	AL	3	662.13
AD	AL	4	547.53
AD	AL	5	658.41
AD	AM	1	722.46
AD	AM	2	708.88
AD	AM	3	786.46
AD	AM	4	650.34
AD	AM	5	782.04
AD	AN	1	199.63
AD	AN	2	195.88
AD	AN	3	217.32
AD	AN	4	179.71
AD	AN	5	216.10
AD	AO	1	910.89
AD	AO	2	893.77
AD	AO	3	991.59
AD	AO	4	819.96
AD	AO	5	986.02
AD	AP	1	880.33
AD	AP	2	863.78
AD	AP	3	958.31
AD	AP	4	792.45
AD	AP	5	952.93
AD	AQ	1	475.58
AD	AQ	2	466.64
AD	AQ	3	517.71
AD	AQ	4	428.11
AD	AQ	5	514.80
AD	AR	1	413.54
AD	AR	2	405.77
AD	AR	3	450.18
AD	AR	4	372.26
AD	AR	5	447.65
AD	AS	1	125.36
AD	AS	2	123.00
AD	AS	3	136.47
AD	AS	4	112.85
AD	AS	5	135.70
AD	AT	1	555.40
AD	AT	2	544.96
AD	AT	3	604.61
AD	AT	4	499.96
AD	AT	5	601.21
AE	AA	1	796.22
AE	AA	2	781.25
AE	AA	3	866.75
AE	AA	4	716.73
AE	AA	5	861.88
AE	AB	1	882.08
AE	AB	2	865.50
AE	AB	3	960.22
AE	AB	4	794.03
AE	AB	5	954.83
AE	AC	1	983.70
AE	AC	2	965.21
AE	AC	3	1070.84
AE	AC	4	885.51
AE	AC	5	1064.83
AE	AD	1	857.72
AE	AD	2	841.59
AE	AD	3	933.70
AE	AD	4	772.10
AE	AD	5	928.46
AE	AF	1	1016.05
AE	AF	2	996.95
AE	AF	3	1106.06
AE	AF	4	914.63
AE	AF	5	1099.85
AE	AG	1	995.42
AE	AG	2	976.71
AE	AG	3	1083.60
AE	AG	4	896.06
AE	AG	5	1077.52
AE	AH	1	768.85
AE	AH	2	754.40
AE	AH	3	836.96
AE	AH	4	692.10
AE	AH	5	832.26
AE	AI	1	753.91
AE	AI	2	739.74
AE	AI	3	820.69
AE	AI	4	678.65
AE	AI	5	816.09
AE	AJ	1	113.75
AE	AJ	2	111.61
AE	AJ	3	123.82
AE	AJ	4	102.39
AE	AJ	5	123.13
AE	AK	1	919.92
AE	AK	2	902.63
AE	AK	3	1001.42
AE	AK	4	828.09
AE	AK	5	995.79
AE	AL	1	251.41
AE	AL	2	246.68
AE	AL	3	273.68
AE	AL	4	226.31
AE	AL	5	272.14
AE	AM	1	145.62
AE	AM	2	142.89
AE	AM	3	158.52
AE	AM	4	131.09
AE	AM	5	157.63
AE	AN	1	661.41
AE	AN	2	648.98
AE	AN	3	720.00
AE	AN	4	595.39
AE	AN	5	715.96
AE	AO	1	285.91
AE	AO	2	280.54
AE	AO	3	311.24
AE	AO	4	257.37
AE	AO	5	309.49
AE	AP	1	199.43
AE	AP	2	195.68
AE	AP	3	217.10
AE	AP	4	179.52
AE	AP	5	215.88
AE	AQ	1	382.35
AE	AQ	2	375.17
AE	AQ	3	416.22
AE	AQ	4	344.19
AE	AQ	5	413.89
AE	AR	1	601.50
AE	AR	2	590.20
AE	AR	3	654.79
AE	AR	4	541.46
AE	AR	5	651.11
AE	AS	1	849.96
AE	AS	2	833.98
AE	AS	3	925.25
AE	AS	4	765.11
AE	AS	5	920.05
AE	AT	1	451.21
AE	AT	2	442.73
AE	AT	3	491.18
AE	AT	4	406.17
AE	AT	5	488.42
AF	AA	1	220.52
AF	AA	2	216.37
AF	AA	3	240.05
AF	AA	4	198.51
AF	AA	5	238.71
AF	AB	1	149.35
AF	AB	2	146.55
AF	AB	3	162.59
AF	AB	4	134.45
AF	AB	5	161.67
AF	AC	1	105.61
AF	AC	2	103.62
AF	AC	3	114.97
AF	AC	4	95.07
AF	AC	5	114.32
AF	AD	1	236.15
AF	AD	2	231.71
AF	AD	3	257.07
AF	AD	4	212.58
AF	AD	5	255.63
AF	AE	1	1016.05
AF	AE	2	996.95
AF	AE	3	1106.06
AF	AE	4	914.63
AF	AE	5	1099.85
AF	AG	1	63.37
AF	AG	2	62.17
AF	AG	3	68.98
AF	AG	4	57.04
AF	AG	5	68.59
AF	AH	1	257.83
AF	AH	2	252.98
AF	AH	3	280.67
AF	AH	4	232.09
AF	AH	5	279.09
AF	AI	1	298.71
AF	AI	2	293.09
AF	AI	3	325.17
AF	AI	4	268.89
AF	AI	5	323.34
AF	AJ	1	1102.60
AF	AJ	2	1081.87
AF	AJ	3	1200.27
AF	AJ	4	992.53
AF	AJ	5	1193.53
AF	AK	1	202.89
AF	AK	2	199.07
AF	AK	3	220.86
AF	AK	4	182.64
AF	AK	5	219.62
AF	AL	1	778.70
AF	AL	2	764.06
AF	AL	3	847.68
AF	AL	4	700.97
AF	AL	5	842.92
AF	AM	1	872.57
AF	AM	2	856.16
AF	AM	3	949.86
AF	AM	4	785.46
AF	AM	5	944.53
AF	AN	1	403.82
AF	AN	2	396.23
AF	AN	3	439.60
AF	AN	4	363.51
AF	AN	5	437.13
AF	AO	1	1009.90
AF	AO	2	990.91
AF	AO	3	1099.36
AF	AO	4	909.09
AF	AO	5	1093.19
AF	AP	1	997.93
AF	AP	2	979.17
AF	AP	3	1086.33
AF	AP	4	898.31
AF	AP	5	1080.23
AF	AQ	1	647.40
AF	AQ	2	635.23
AF	AQ	3	704.75
AF	AQ	4	582.77
AF	AQ	5	700.79
AF	AR	1	464.17
AF	AR	2	455.45
AF	AR	3	505.29
AF	AR	4	417.84
AF	AR	5	502.45
AF	AS	1	351.27
AF	AS	2	344.67
AF	AS	3	382.39
AF	AS	4	316.21
AF	AS	5	380.24
AF	AT	1	634.50
AF	AT	2	622.57
AF	AT	3	690.70
AF	AT	4	571.16
AF	AT	5	686.82
AG	AA	1	211.22
AG	AA	2	207.25
AG	AA	3	229.93
AG	AA	4	190.13
AG	AA	5	228.64
AG	AB	1	113.75
AG	AB	2	111.61
AG	AB	3	123.82
AG	AB	4	102.39
AG	AB	5	123.13
AG	AC	1	42.24
AG	AC	2	41.45
AG	AC	3	45.99
AG	AC	4	38.03
AG	AC	5	45.73
AG	AD	1	181.70
AG	AD	2	178.28
AG	AD	3	197.79
AG	AD	4	163.56
AG	AD	5	196.68
AG	AE	1	995.42
AG	AE	2	976.71
AG	AE	3	1083.60
AG	AE	4	896.06
AG	AE	5	1077.52
AG	AF	1	63.37
AG	AF	2	62.17
AG	AF	3	68.98
AG	AF	4	57.04
AG	AF	5	68.59
AG	AH	1	227.49
AG	AH	2	223.21
AG	AH	3	247.64
AG	AH	4	204.78
AG	AH	5	246.25
AG	AI	1	257.83
AG	AI	2	252.98
AG	AI	3	280.67
AG	AI	4	232.09
AG	AI	5	279.09
AG	AJ	1	1086.09
AG	AJ	2	1065.67
AG	AJ	3	1182.30
AG	AJ	4	977.67
AG	AJ	5	1175.66
AG	AK	1	141.78
AG	AK	2	139.11
AG	AK	3	154.34
AG	AK	4	127.63
AG	AK	5	153.47
AG	AL	1	753.04
AG	AL	2	738.89
AG	AL	3	819.75
AG	AL	4	677.87
AG	AL	5	815.15
AG	AM	1	853.84
AG	AM	2	837.79
AG	AM	3	929.48
AG	AM	4	768.61
AG	AM	5	924.26
AG	AN	1	363.37
AG	AN	2	356.54
AG	AN	3	395.56
AG	AN	4	327.10
AG	AN	5	393.34
AG	AO	1	1006.94
AG	AO	2	988.01
AG	AO	3	1096.14
AG	AO	4	906.42
AG	AO	5	1089.98
AG	AP	1	989.58
AG	AP	2	970.98
AG	AP	3	1077.24
AG	AP	4	890.80
AG	AP	5	1071.19
AG	AQ	1	620.31
AG	AQ	2	608.65
AG	AQ	3	675.26
AG	AQ	4	558.39
AG	AQ	5	671.47
AG	AR	1	467.78
AG	AR	2	458.99
AG	AR	3	509.22
AG	AR	4	421.09
AG	AR	5	506.36
AG	AS	1	291.14
AG	AS	2	285.67
AG	AS	3	316.93
AG	AS	4	262.08
AG	AS	5	315.15
AG	AT	1	633.85
AG	AT	2	621.94
AG	AT	3	690.00
AG	AT	4	570.58
AG	AT	5	686.13
AH	AA	1	84.49
AH	AA	2	82.90
AH	AA	3	91.97
AH	AA	4	76.05
AH	AA	5	91.46
AH	AB	1	113.75
AH	AB	2	111.61
AH	AB	3	123.82
AH	AB	4	102.39
AH	AB	5	123.13
AH	AC	1	215.40
AH	AC	2	211.35
AH	AC	3	234.48
AH	AC	4	193.90
AH	AC	5	233.17
AH	AD	1	123.16
AH	AD	2	120.85
AH	AD	3	134.07
AH	AD	4	110.87
AH	AD	5	133.32
AH	AE	1	768.85
AH	AE	2	754.40
AH	AE	3	836.96
AH	AE	4	692.10
AH	AE	5	832.26
AH	AF	1	257.83
AH	AF	2	252.98
AH	AF	3	280.67
AH	AF	4	232.09
AH	AF	5	279.09
AH	AG	1	227.49
AH	AG	2	223.21
AH	AG	3	247.64
AH	AG	4	204.78
AH	AG	5	246.25
AH	AI	1	63.37
AH	AI	2	62.17
AH	AI	3	68.98
AH	AI	4	57.04
AH	AI	5	68.59
AH	AJ	1	861.61
AH	AJ	2	845.41
AH	AJ	3	937.94
AH	AJ	4	775.60
AH	AJ	5	932.67
AH	AK	1	173.78
AH	AK	2	170.51
AH	AK	3	189.18
AH	AK	4	156.43
AH	AK	5	188.11
AH	AL	1	525.55
AH	AL	2	515.67
AH	AL	3	572.11
AH	AL	4	473.09
AH	AL	5	568.90
AH	AM	1	628.43
AH	AM	2	616.62
AH	AM	3	684.10
AH	AM	4	565.70
AH	AM	5	680.26
AH	AN	1	153.18
AH	AN	2	150.30
AH	AN	3	166.75
AH	AN	4	137.89
AH	AN	5	165.81
AH	AO	1	798.60
AH	AO	2	783.58
AH	AO	3	869.34
AH	AO	4	718.88
AH	AO	5	864.46
AH	AP	1	773.51
AH	AP	2	758.97
AH	AP	3	842.04
AH	AP	4	696.30
AH	AP	5	837.31
AH	AQ	1	392.87
AH	AQ	2	385.48
AH	AQ	3	427.67
AH	AQ	4	353.65
AH	AQ	5	425.27
AH	AR	1	290.41
AH	AR	2	284.95
AH	AR	3	316.14
AH	AR	4	261.42
AH	AR	5	314.36
AH	AS	1	218.56
AH	AS	2	214.45
AH	AS	3	237.92
AH	AS	4	196.74
AH	AS	5	236.59
AH	AT	1	436.16
AH	AT	2	427.96
AH	AT	3	474.80
AH	AT	4	392.62
AH	AT	5	472.13
AI	AA	1	147.85
AI	AA	2	145.07
AI	AA	3	160.95
AI	AA	4	133.09
AI	AA	5	160.05
AI	AB	1	149.35
AI	AB	2	146.55
AI	AB	3	162.59
AI	AB	4	134.45
AI	AB	5	161.67
AI	AC	1	236.15
AI	AC	2	231.71
AI	AC	3	257.07
AI	AC	4	212.58
AI	AC	5	255.63
AI	AD	1	105.61
AI	AD	2	103.62
AI	AD	3	114.97
AI	AD	4	95.07
AI	AD	5	114.32
AI	AE	1	753.91
AI	AE	2	739.74
AI	AE	3	820.69
AI	AE	4	678.65
AI	AE	5	816.09
AI	AF	1	298.71
AI	AF	2	293.09
AI	AF	3	325.17
AI	AF	4	268.89
AI	AF	5	323.34
AI	AG	1	257.83
AI	AG	2	252.98
AI	AG	3	280.67
AI	AG	4	232.09
AI	AG	5	279.09
AI	AH	1	63.37
AI	AH	2	62.17
AI	AH	3	68.98
AI	AH	4	57.04
AI	AH	5	68.59
AI	AJ	1	851.45
AI	AJ	2	835.45
AI	AJ	3	926.88
AI	AJ	4	766.46
AI	AJ	5	921.67
AI	AK	1	166.96
AI	AK	2	163.82
AI	AK	3	181.75
AI	AK	4	150.29
AI	AK	5	180.73
AI	AL	1	505.61
AI	AL	2	496.11
AI	AL	3	550.40
AI	AL	4	455.14
AI	AL	5	547.31
AI	AM	1	617.53
AI	AM	2	605.92
AI	AM	3	672.23
AI	AM	4	555.88
AI	AM	5	668.46
AI	AN	1	105.66
AI	AN	2	103.68
AI	AN	3	115.02
AI	AN	4	95.11
AI	AN	5	114.38
AI	AO	1	806.55
AI	AO	2	791.39
AI	AO	3	878.00
AI	AO	4	726.04
AI	AO	5	873.07
AI	AP	1	774.90
AI	AP	2	760.33
AI	AP	3	843.55
AI	AP	4	697.55
AI	AP	5	838.81
AI	AQ	1	372.49
AI	AQ	2	365.49
AI	AQ	3	405.49
AI	AQ	4	335.31
AI	AQ	5	403.21
AI	AR	1	326.25
AI	AR	2	320.12
AI	AR	3	355.15
AI	AR	4	293.69
AI	AR	5	353.16
AI	AS	1	166.97
AI	AS	2	163.83
AI	AS	3	181.76
AI	AS	4	150.30
AI	AS	5	180.74
AI	AT	1	456.24
AI	AT	2	447.67
AI	AT	3	496.66
AI	AT	4	410.70
AI	AT	5	493.87
AJ	AA	1	882.08
AJ	AA	2	865.50
AJ	AA	3	960.22
AJ	AA	4	794.03
AJ	AA	5	954.83
AJ	AB	1	973.67
AJ	AB	2	955.37
AJ	AB	3	1059.93
AJ	AB	4	876.48
AJ	AB	5	1053.98
AJ	AC	1	1077.01
AJ	AC	2	1056.77
AJ	AC	3	1172.42
AJ	AC	4	969.50
AJ	AC	5	1165.84
AJ	AD	1	956.34
AJ	AD	2	938.36
AJ	AD	3	1041.05
AJ	AD	4	860.87
AJ	AD	5	1035.21
AJ	AE	1	113.75
AJ	AE	2	111.61
AJ	AE	3	123.82
AJ	AE	4	102.39
AJ	AE	5	123.13
AJ	AF	1	1102.60
AJ	AF	2	1081.87
AJ	AF	3	1200.27
AJ	AF	4	992.53
AJ	AF	5	1193.53
AJ	AG	1	1086.09
AJ	AG	2	1065.67
AJ	AG	3	1182.30
AJ	AG	4	977.67
AJ	AG	5	1175.66
AJ	AH	1	861.61
AJ	AH	2	845.41
AJ	AH	3	937.94
AJ	AH	4	775.60
AJ	AH	5	932.67
AJ	AI	1	851.45
AJ	AI	2	835.45
AJ	AI	3	926.88
AJ	AI	4	766.46
AJ	AI	5	921.67
AJ	AK	1	1018.27
AJ	AK	2	999.13
AJ	AK	3	1108.48
AJ	AK	4	916.63
AJ	AK	5	1102.25
AJ	AL	1	357.30
AJ	AL	2	350.58
AJ	AL	3	388.95
AJ	AL	4	321.63
AJ	AL	5	386.76
AJ	AM	1	233.93
AJ	AM	2	229.53
AJ	AM	3	254.65
AJ	AM	4	210.58
AJ	AM	5	253.22
AJ	AN	1	762.92
AJ	AN	2	748.58
AJ	AN	3	830.50
AJ	AN	4	686.76
AJ	AN	5	825.84
AJ	AO	1	243.11
AJ	AO	2	238.54
AJ	AO	3	264.65
AJ	AO	4	218.84
AJ	AO	5	263.16
AJ	AP	1	170.02
AJ	AP	2	166.82
AJ	AP	3	185.08
AJ	AP	4	153.04
AJ	AP	5	184.04
AJ	AQ	1	483.98
AJ	AQ	2	474.88
AJ	AQ	3	526.85
AJ	AQ	4	435.67
AJ	AQ	5	523.89
AJ	AR	1	669.00
AJ	AR	2	656.43
AJ	AR	3	728.27
AJ	AR	4	602.22
AJ	AR	5	724.18
AJ	AS	1	955.47
AJ	AS	2	937.51
AJ	AS	3	1040.11
AJ	AS	4	860.09
AJ	AS	5	1034.27
AJ	AT	1	506.36
AJ	AT	2	496.84
AJ	AT	3	551.21
AJ	AT	4	455.81
AJ	AT	5	548.12
AK	AA	1	213.99
AK	AA	2	209.97
AK	AA	3	232.95
AK	AA	4	192.63
AK	AA	5	231.64
AK	AB	1	110.51
AK	AB	2	108.43
AK	AB	3	120.30
AK	AB	4	99.48
AK	AB	5	119.62
AK	AC	1	102.57
AK	AC	2	100.64
AK	AC	3	111.66
AK	AC	4	92.33
AK	AC	5	111.03
AK	AD	1	62.26
AK	AD	2	61.09
AK	AD	3	67.78
AK	AD	4	56.04
AK	AD	5	67.39
AK	AE	1	919.92
AK	AE	2	902.63
AK	AE	3	1001.42
AK	AE	4	828.09
AK	AE	5	995.79
AK	AF	1	202.89
AK	AF	2	199.07
AK	AF	3	220.86
AK	AF	4	182.64
AK	AF	5	219.62
AK	AG	1	141.78
AK	AG	2	139.11
AK	AG	3	154.34
AK	AG	4	127.63
AK	AG	5	153.47
AK	AH	1	173.78
AK	AH	2	170.51
AK	AH	3	189.18
AK	AH	4	156.43
AK	AH	5	188.11
AK	AI	1	166.96
AK	AI	2	163.82
AK	AI	3	181.75
AK	AI	4	150.29
AK	AI	5	180.73
AK	AJ	1	1018.27
AK	AJ	2	999.13
AK	AJ	3	1108.48
AK	AJ	4	916.63
AK	AJ	5	1102.25
AL	AA	1	562.24
AL	AA	2	551.68
AL	AA	3	612.05
AL	AA	4	506.12
AL	AA	5	608.61
AL	AB	1	639.30
AL	AB	2	627.28
AL	AB	3	695.93
AL	AB	4	575.48
AL	AB	5	692.02
AL	AC	1	738.47
AL	AC	2	724.59
AL	AC	3	803.89
AL	AC	4	664.75
AL	AC	5	799.37
AL	AD	1	608.25
AL	AD	2	596.82
AL	AD	3	662.13
AL	AD	4	547.53
AL	AD	5	658.41
AL	AE	1	251.41
AL	AE	2	246.68
AL	AE	3	273.68
AL	AE	4	226.31
AL	AE	5	272.14
AL	AF	1	778.70
AL	AF	2	764.06
AL	AF	3	847.68
AL	AF	4	700.97
AL	AF	5	842.92
AL	AG	1	753.04
AL	AG	2	738.89
AL	AG	3	819.75
AL	AG	4	677.87
AL	AG	5	815.15
AL	AH	1	525.55
AL	AH	2	515.67
AL	AH	3	572.11
AL	AH	4	473.09
AL	AH	5	568.90
AL	AI	1	505.61
AL	AI	2	496.11
AL	AI	3	550.40
AL	AI	4	455.14
AL	AI	5	547.31
AL	AJ	1	357.30
AL	AJ	2	350.58
AL	AJ	3	388.95
AL	AJ	4	321.63
AL	AJ	5	386.76
AM	AA	1	652.32
AM	AA	2	640.06
AM	AA	3	710.11
AM	AA	4	587.21
AM	AA	5	706.12
AM	AB	1	740.98
AM	AB	2	727.05
AM	AB	3	806.62
AM	AB	4	667.01
AM	AB	5	802.09
AM	AC	1	843.78
AM	AC	2	827.92
AM	AC	3	918.53
AM	AC	4	759.55
AM	AC	5	913.37
AM	AD	1	722.46
AM	AD	2	708.88
AM	AD	3	786.46
AM	AD	4	650.34
AM	AD	5	782.04
AM	AE	1	145.62
AM	AE	2	142.89
AM	AE	3	158.52
AM	AE	4	131.09
AM	AE	5	157.63
AM	AF	1	872.57
AM	AF	2	856.16
AM	AF	3	949.86
AM	AF	4	785.46
AM	AF	5	944.53
AM	AG	1	853.84
AM	AG	2	837.79
AM	AG	3	929.48
AM	AG	4	768.61
AM	AG	5	924.26
AM	AH	1	628.43
AM	AH	2	616.62
AM	AH	3	684.10
AM	AH	4	565.70
AM	AH	5	680.26
AM	AI	1	617.53
AM	AI	2	605.92
AM	AI	3	672.23
AM	AI	4	555.88
AM	AI	5	668.46
AM	AJ	1	233.93
AM	AJ	2	229.53
AM	AJ	3	254.65
AM	AJ	4	210.58
AM	AJ	5	253.22
AN	AA	1	228.81
AN	AA	2	224.51
AN	AA	3	249.08
AN	AA	4	205.97
AN	AA	5	247.68
AN	AB	1	254.58
AN	AB	2	249.80
AN	AB	3	277.14
AN	AB	4	229.17
AN	AB	5	275.58
AN	AC	1	340.31
AN	AC	2	333.91
AN	AC	3	370.45
AN	AC	4	306.34
AN	AC	5	368.37
AN	AD	1	199.63
AN	AD	2	195.88
AN	AD	3	217.32
AN	AD	4	179.71
AN	AD	5	216.10
AN	AE	1	661.41
AN	AE	2	648.98
AN	AE	3	720.00
AN	AE	4	595.39
AN	AE	5	715.96
AN	AF	1	403.82
AN	AF	2	396.23
AN	AF	3	439.60
AN	AF	4	363.51
AN	AF	5	437.13
AN	AG	1	363.37
AN	AG	2	356.54
AN	AG	3	395.56
AN	AG	4	327.10
AN	AG	5	393.34
AN	AH	1	153.18
AN	AH	2	150.30
AN	AH	3	166.75
AN	AH	4	137.89
AN	AH	5	165.81
AN	AI	1	105.66
AN	AI	2	103.68
AN	AI	3	115.02
AN	AI	4	95.11
AN	AI	5	114.38
AN	AJ	1	762.92
AN	AJ	2	748.58
AN	AJ	3	830.50
AN	AJ	4	686.76
AN	AJ	5	825.84
AO	AA	1	795.75
AO	AA	2	780.79
AO	AA	3	866.24
AO	AA	4	716.32
AO	AA	5	861.38
AO	AB	1	901.61
AO	AB	2	884.66
AO	AB	3	981.48
AO	AB	4	811.61
AO	AB	5	975.97
AO	AC	1	1007.18
AO	AC	2	988.25
AO	AC	3	1096.40
AO	AC	4	906.64
AO	AC	5	1090.24
AO	AD	1	910.89
AO	AD	2	893.77
AO	AD	3	991.59
AO	AD	4	819.96
AO	AD	5	986.02
AO	AE	1	285.91
AO	AE	2	280.54
AO	AE	3	311.24
AO	AE	4	257.37
AO	AE	5	309.49
AO	AF	1	1009.90
AO	AF	2	990.91
AO	AF	3	1099.36
AO	AF	4	909.09
AO	AF	5	1093.19
AO	AG	1	1006.94
AO	AG	2	988.01
AO	AG	3	1096.14
AO	AG	4	906.42
AO	AG	5	1089.98
AO	AH	1	798.60
AO	AH	2	783.58
AO	AH	3	869.34
AO	AH	4	718.88
AO	AH	5	864.46
AO	AI	1	806.55
AO	AI	2	791.39
AO	AI	3	878.00
AO	AI	4	726.04
AO	AI	5	873.07
AO	AJ	1	243.11
AO	AJ	2	238.54
AO	AJ	3	264.65
AO	AJ	4	218.84
AO	AJ	5	263.16
AP	AA	1	779.71
AP	AA	2	765.05
AP	AA	3	848.78
AP	AA	4	701.88
AP	AA	5	844.02
AP	AB	1	880.83
AP	AB	2	864.27
AP	AB	3	958.86
AP	AB	4	792.90
AP	AB	5	953.47
AP	AC	1	986.24
AP	AC	2	967.70
AP	AC	3	1073.61
AP	AC	4	887.79
AP	AC	5	1067.58
AP	AD	1	880.33
AP	AD	2	863.78
AP	AD	3	958.31
AP	AD	4	792.45
AP	AD	5	952.93
AP	AE	1	199.43
AP	AE	2	195.68
AP	AE	3	217.10
AP	AE	4	179.52
AP	AE	5	215.88
AP	AF	1	997.93
AP	AF	2	979.17
AP	AF	3	1086.33
AP	AF	4	898.31
AP	AF	5	1080.23
AP	AG	1	989.58
AP	AG	2	970.98
AP	AG	3	1077.24
AP	AG	4	890.80
AP	AG	5	1071.19
AP	AH	1	773.51
AP	AH	2	758.97
AP	AH	3	842.04
AP	AH	4	696.30
AP	AH	5	837.31
AP	AI	1	774.90
AP	AI	2	760.33
AP	AI	3	843.55
AP	AI	4	697.55
AP	AI	5	838.81
AP	AJ	1	170.02
AP	AJ	2	166.82
AP	AJ	3	185.08
AP	AJ	4	153.04
AP	AJ	5	184.04
AQ	AA	1	433.16
AQ	AA	2	425.02
AQ	AA	3	471.53
AQ	AA	4	389.92
AQ	AA	5	468.89
AQ	AB	1	506.59
AQ	AB	2	497.06
AQ	AB	3	551.46
AQ	AB	4	456.02
AQ	AB	5	548.36
AQ	AC	1	605.28
AQ	AC	2	593.90
AQ	AC	3	658.90
AQ	AC	4	544.86
AQ	AC	5	655.20
AQ	AD	1	475.58
AQ	AD	2	466.64
AQ	AD	3	517.71
AQ	AD	4	428.11
AQ	AD	5	514.80
AQ	AE	1	382.35
AQ	AE	2	375.17
AQ	AE	3	416.22
AQ	AE	4	344.19
AQ	AE	5	413.89
AQ	AF	1	647.40
AQ	AF	2	635.23
AQ	AF	3	704.75
AQ	AF	4	582.77
AQ	AF	5	700.79
AQ	AG	1	620.31
AQ	AG	2	608.65
AQ	AG	3	675.26
AQ	AG	4	558.39
AQ	AG	5	671.47
AQ	AH	1	392.87
AQ	AH	2	385.48
AQ	AH	3	427.67
AQ	AH	4	353.65
AQ	AH	5	425.27
AQ	AI	1	372.49
AQ	AI	2	365.49
AQ	AI	3	405.49
AQ	AI	4	335.31
AQ	AI	5	403.21
AQ	AJ	1	483.98
AQ	AJ	2	474.88
AQ	AJ	3	526.85
AQ	AJ	4	435.67
AQ	AJ	5	523.89
AR	AA	1	259.54
AR	AA	2	254.66
AR	AA	3	282.53
AR	AA	4	233.63
AR	AA	5	280.95
AR	AB	1	372.35
AR	AB	2	365.35
AR	AB	3	405.33
AR	AB	4	335.18
AR	AB	5	403.05
AR	AC	1	474.89
AR	AC	2	465.97
AR	AC	3	516.96
AR	AC	4	427.49
AR	AC	5	514.06
AR	AD	1	413.54
AR	AD	2	405.77
AR	AD	3	450.18
AR	AD	4	372.26
AR	AD	5	447.65
AR	AE	1	601.50
AR	AE	2	590.20
AR	AE	3	654.79
AR	AE	4	541.46
AR	AE	5	651.11
AR	AF	1	464.17
AR	AF	2	455.45
AR	AF	3	505.29
AR	AF	4	417.84
AR	AF	5	502.45
AR	AG	1	467.78
AR	AG	2	458.99
AR	AG	3	509.22
AR	AG	4	421.09
AR	AG	5	506.36
AR	AH	1	290.41
AR	AH	2	284.95
AR	AH	3	316.14
AR	AH	4	261.42
AR	AH	5	314.36
AR	AI	1	326.25
AR	AI	2	320.12
AR	AI	3	355.15
AR	AI	4	293.69
AR	AI	5	353.16
AR	AJ	1	669.00
AR	AJ	2	656.43
AR	AJ	3	728.27
AR	AJ	4	602.22
AR	AJ	5	724.18
AS	AA	1	294.59
AS	AA	2	289.05
AS	AA	3	320.68
AS	AA	4	265.18
AS	AA	5	318.88
AS	AB	1	230.93
AS	AB	2	226.59
AS	AB	3	251.38
AS	AB	4	207.88
AS	AB	5	249.97
AS	AC	1	251.94
AS	AC	2	247.20
AS	AC	3	274.25
AS	AC	4	226.79
AS	AC	5	272.71
AS	AD	1	125.36
AS	AD	2	123.00
AS	AD	3	136.47
AS	AD	4	112.85
AS	AD	5	135.70
AS	AE	1	849.96
AS	AE	2	833.98
AS	AE	3	925.25
AS	AE	4	765.11
AS	AE	5	920.05
AS	AF	1	351.27
AS	AF	2	344.67
AS	AF	3	382.39
AS	AF	4	316.21
AS	AF	5	380.24
AS	AG	1	291.14
AS	AG	2	285.67
AS	AG	3	316.93
AS	AG	4	262.08
AS	AG	5	315.15
AS	AH	1	218.56
AS	AH	2	214.45
AS	AH	3	237.92
AS	AH	4	196.74
AS	AH	5	236.59
AS	AI	1	166.97
AS	AI	2	163.83
AS	AI	3	181.76
AS	AI	4	150.30
AS	AI	5	180.74
AS	AJ	1	955.47
AS	AJ	2	937.51
AS	AJ	3	1040.11
AS	AJ	4	860.09
AS	AJ	5	1034.27
AT	AA	1	422.88
AT	AA	2	414.94
AT	AA	3	460.35
AT	AA	4	380.67
AT	AA	5	457.76
AT	AB	1	532.04
AT	AB	2	522.04
AT	AB	3	579.17
AT	AB	4	478.93
AT	AB	5	575.92
AT	AC	1	636.94
AT	AC	2	624.96
AT	AC	3	693.36
AT	AC	4	573.35
AT	AC	5	689.47
AT	AD	1	555.40
AT	AD	2	544.96
AT	AD	3	604.61
AT	AD	4	499.96
AT	AD	5	601.21
AT	AE	1	451.21
AT	AE	2	442.73
AT	AE	3	491.18
AT	AE	4	406.17
AT	AE	5	488.42
AT	AF	1	634.50
AT	AF	2	622.57
AT	AF	3	690.70
AT	AF	4	571.16
AT	AF	5	686.82
AT	AG	1	633.85
AT	AG	2	621.94
AT	AG	3	690.00
AT	AG	4	570.58
AT	AG	5	686.13
AT	AH	1	436.16
AT	AH	2	427.96
AT	AH	3	474.80
AT	AH	4	392.62
AT	AH	5	472.13
AT	AI	1	456.24
AT	AI	2	447.67
AT	AI	3	496.66
AT	AI	4	410.70
AT	AI	5	493.87
AT	AJ	1	506.36
AT	AJ	2	496.84
AT	AJ	3	551.21
AT	AJ	4	455.81
AT	AJ	5	548.12
;

table R={R}  q(R)  p(R)  d(R):
	R	q	p	d	:=
	1	30.0	AA	AF
	2	40.0	AB	AG
	3	20.0	AC	AH
	4	10.0	AD	AI
	5	40.0	AE	AJ
;

